<number of tasks>
50

<cycle time>
1000

<order strength>
0.604


<task times>
1 358
2 36
3 92
4 234
5 443
6 476
7 340
8 140
9 345
10 78
11 150
12 542
13 600
14 484
15 113
16 221
17 488
18 94
19 305
20 28
21 251
22 29
23 176
24 468
25 173
26 278
27 43
28 162
29 39
30 181
31 213
32 338
33 103
34 350
35 90
36 477
37 305
38 91
39 87
40 206
41 90
42 323
43 233
44 288
45 282
46 565
47 236
48 616
49 27
50 134

<precedence relations>
1,7
2,9
3,8
3,11
4,10
4,11
5,11
6,11
7,13
8,14
9,12
10,15
11,16
11,17
11,18
12,19
13,22
14,21
15,20
16,22
17,22
18,22
19,24
20,23
21,25
22,24
22,25
22,26
22,27
22,28
23,29
24,29
24,30
24,31
24,32
25,29
25,30
25,32
26,44
27,31
28,29
28,48
29,33
29,47
30,35
31,34
31,35
32,34
33,37
34,36
34,38
34,39
35,39
35,47
36,40
37,42
38,41
39,43
39,44
40,46
41,47
42,45
43,49
44,46
44,48
44,50
45,49
46,49
47,49
47,50

<end>
